RT is False
Default write of storage_offers_DA.csv just to have a file (but constraint should be inactive)
Reading model...
...model read.
creating competitive generators file...
...competitive generators recorded.
Loading data...
.. day-ahead data with real-time VRE data read.
Compiling instance...
...instance created.
Creating Offer Mitigation (model will solve as dispatch if TRUE)...
NOTE: storage offers will not be mitigated
...storage offer mitigation file created
Converting model to MPEC...
...converted
NOTE: initial MIP solve with only storage competitive to get feasible solution
Solving...

Welcome to IBM(R) ILOG(R) CPLEX(R) Interactive Optimizer 12.8.0.0
  with Simplex, Mixed Integer & Barrier Optimizers
5725-A06 5725-A29 5724-Y48 5724-Y49 5724-Y54 5724-Y55 5655-Y21
Copyright IBM Corp. 1988, 2017.  All Rights Reserved.

Type 'help' for a list of available commands.
Type 'help' followed by a command name for more
information on commands.

CPLEX> Logfile 'cplex.log' closed.
Logfile 'C:\Users\llavi\Desktop\test919\logs\tmp1ypsrjlf.cplex.log' open.
CPLEX> New value for parallel optimization mode: -1
CPLEX> New value for mixed integer optimality gap tolerance: 0.01
CPLEX> New value for integrality tolerance: 1e-09
CPLEX> New value for feasibility tolerance: 0.01
CPLEX> New value for deterministic time limit in ticks: 75000
CPLEX> Problem 'C:\Users\llavi\Desktop\test919\logs\tmpf2fuwd9c.pyomo.lp' read.
Read time = 0.30 sec. (13.50 ticks)
CPLEX> Problem name         : C:\Users\llavi\Desktop\test919\logs\tmpf2fuwd9c.pyomo.lp
Objective sense      : Maximize
Variables            :   54021  [Nneg: 1,  Box: 22008,  Free: 4464,
                                 Binary: 27548]
Objective nonzeros   :    8980
Linear constraints   :  123829  [Less: 41554,  Greater: 59512,  Equal: 22763]
  Nonzeros           :  300593
  RHS nonzeros       :   67901

Variables            : Min LB: -5000.000        Max UB: 1000000.       
Objective nonzeros   : Min   : 0.008333333      Max   : 834.2500       
Linear constraints   :
  Nonzeros           : Min   : 0.001000000      Max   : 1000000.       
  RHS nonzeros       : Min   : 0.008333333      Max   : 1000000.       
CPLEX> CPXPARAM_Simplex_Tolerances_Feasibility          0.01
CPXPARAM_Parallel                                -1
CPXPARAM_DetTimeLimit                            75000
CPXPARAM_MIP_Tolerances_MIPGap                   0.01
CPXPARAM_MIP_Tolerances_Integrality              1.0000000000000001e-09
Tried aggregator 3 times.
MIP Presolve eliminated 89230 rows and 19122 columns.
MIP Presolve added 3403 rows and 0 columns.
MIP Presolve modified 23916 coefficients.
Aggregator did 13059 substitutions.
Reduced MIP has 24943 rows, 21284 columns, and 71198 nonzeros.
Reduced MIP has 8423 binaries, 0 generals, 0 SOSs, and 0 indicators.
Presolve time = 0.25 sec. (169.82 ticks)
Probing fixed 397 vars, tightened 2839 bounds.
Probing time = 3.14 sec. (893.73 ticks)
Tried aggregator 2 times.
MIP Presolve eliminated 896 rows and 794 columns.
MIP Presolve modified 2190 coefficients.
Aggregator did 36 substitutions.
Reduced MIP has 24011 rows, 20454 columns, and 68504 nonzeros.
Reduced MIP has 8026 binaries, 0 generals, 0 SOSs, and 0 indicators.
Presolve time = 0.09 sec. (54.11 ticks)
Probing time = 0.06 sec. (15.59 ticks)
Clique table members: 6451.
MIP emphasis: balance optimality and feasibility.
MIP search method: dynamic search.
Parallel mode: opportunistic, using up to 4 threads.
Root relaxation solution time = 0.56 sec. (452.47 ticks)

        Nodes                                         Cuts/
   Node  Left     Objective  IInf  Best Integer    Best Bound    ItCnt     Gap

      0     0     3227.1014   708                   3227.1014     3338         
*     0+    0                         3227.1014     3227.1014             0.00%
      0     0        cutoff           3227.1014     3227.1014     3338    0.00%
Elapsed time = 12.86 sec. (5620.53 ticks, tree = 0.01 MB, solutions = 1)

Root node processing (before b&c):
  Real time             =   12.88 sec. (5622.81 ticks)
Parallel b&c, 4 threads:
  Real time             =    0.00 sec. (0.00 ticks)
  Sync time (average)   =    0.00 sec.
  Wait time (average)   =    0.00 sec.
                          ------------
Total (root+branch&cut) =   12.88 sec. (5622.81 ticks)

Solution pool: 1 solution saved.

MIP - Integer optimal solution:  Objective =  3.2271014075e+03
Solution time =   12.88 sec.  Iterations = 3338  Nodes = 0
Deterministic time = 5622.97 ticks  (436.74 ticks/sec)

CPLEX> Incumbent solution written to file 'C:\Users\llavi\Desktop\test919\logs\tmpcanm9rhz.cplex.sol'.
CPLEX> NOTE: no warmstart specified for MIP iteration, default behavior is true
NOTE: resolving with all competitive generators using storage-only solution to warmstart
Solving...

Welcome to IBM(R) ILOG(R) CPLEX(R) Interactive Optimizer 12.8.0.0
  with Simplex, Mixed Integer & Barrier Optimizers
5725-A06 5725-A29 5724-Y48 5724-Y49 5724-Y54 5724-Y55 5655-Y21
Copyright IBM Corp. 1988, 2017.  All Rights Reserved.

Type 'help' for a list of available commands.
Type 'help' followed by a command name for more
information on commands.

CPLEX> Logfile 'cplex.log' closed.
Logfile 'C:\Users\llavi\Desktop\test919\logs\tmps5tghgz0.cplex.log' open.
CPLEX> New value for parallel optimization mode: -1
CPLEX> New value for mixed integer optimality gap tolerance: 0.01
CPLEX> New value for integrality tolerance: 1e-09
CPLEX> New value for feasibility tolerance: 0.01
CPLEX> New value for deterministic time limit in ticks: 75000
CPLEX> Problem 'C:\Users\llavi\Desktop\test919\logs\tmpj2xdaix3.pyomo.lp' read.
Read time = 0.27 sec. (13.52 ticks)
CPLEX> MIP start file 'C:\Users\llavi\Desktop\test919\logs\tmpm3lq6szq.cplex.mst' read.
CPLEX> Problem name         : C:\Users\llavi\Desktop\test919\logs\tmpj2xdaix3.pyomo.lp
Objective sense      : Maximize
Variables            :   54741  [Nneg: 1,  Box: 22728,  Free: 4464,
                                 Binary: 27548]
Objective nonzeros   :    9700
Linear constraints   :  123829  [Less: 41554,  Greater: 59512,  Equal: 22763]
  Nonzeros           :  300593
  RHS nonzeros       :   67901

Variables            : Min LB: -5000.000        Max UB: 1000000.       
Objective nonzeros   : Min   : 0.008333333      Max   : 834.2500       
Linear constraints   :
  Nonzeros           : Min   : 0.001000000      Max   : 1000000.       
  RHS nonzeros       : Min   : 0.008333333      Max   : 1000000.       
CPLEX> CPXPARAM_Simplex_Tolerances_Feasibility          0.01
CPXPARAM_Parallel                                -1
CPXPARAM_DetTimeLimit                            75000
CPXPARAM_MIP_Tolerances_MIPGap                   0.01
CPXPARAM_MIP_Tolerances_Integrality              1.0000000000000001e-09
1 of 1 MIP starts provided solutions.
MIP start 'm1' defined initial solution with objective 3227.1014.
Tried aggregator 3 times.
MIP Presolve eliminated 89230 rows and 19842 columns.
MIP Presolve added 3403 rows and 0 columns.
MIP Presolve modified 23916 coefficients.
Aggregator did 13059 substitutions.
Reduced MIP has 24943 rows, 21284 columns, and 71198 nonzeros.
Reduced MIP has 8423 binaries, 0 generals, 0 SOSs, and 0 indicators.
Presolve time = 0.30 sec. (170.19 ticks)
Probing fixed 397 vars, tightened 2839 bounds.
Probing time = 3.39 sec. (893.73 ticks)
Tried aggregator 2 times.
MIP Presolve eliminated 896 rows and 794 columns.
MIP Presolve modified 2190 coefficients.
Aggregator did 36 substitutions.
Reduced MIP has 24011 rows, 20454 columns, and 68504 nonzeros.
Reduced MIP has 8026 binaries, 0 generals, 0 SOSs, and 0 indicators.
Presolve time = 0.11 sec. (54.12 ticks)
Probing time = 0.06 sec. (16.30 ticks)
Clique table members: 6451.
MIP emphasis: balance optimality and feasibility.
MIP search method: dynamic search.
Parallel mode: opportunistic, using up to 4 threads.
Root relaxation solution time = 0.41 sec. (186.28 ticks)

        Nodes                                         Cuts/
   Node  Left     Objective  IInf  Best Integer    Best Bound    ItCnt     Gap

*     0+    0                         3227.1014   5.28105e+07              --- 
      0     0        cutoff           3227.1014                   3315     --- 

Root node processing (before b&c):
  Real time             =   10.88 sec. (3811.52 ticks)
Parallel b&c, 4 threads:
  Real time             =    0.00 sec. (0.00 ticks)
  Sync time (average)   =    0.00 sec.
  Wait time (average)   =    0.00 sec.
                          ------------
Total (root+branch&cut) =   10.88 sec. (3811.52 ticks)

Solution pool: 1 solution saved.

MIP - Integer optimal solution:  Objective =  3.2271014075e+03
Solution time =   10.89 sec.  Iterations = 3315  Nodes = 0
Deterministic time = 3811.68 ticks  (350.02 ticks/sec)

CPLEX> Incumbent solution written to file 'C:\Users\llavi\Desktop\test919\logs\tmpa9obp262.cplex.sol'.
CPLEX> Exporting results... 
